Running for instance ./models/r106.txt
Generating routes...
Execution time:  88.093285  seconds
Academic license - for non-commercial use only
Warning: constraint name "Cliente esta na rota x1" has a space
Optimize a model with 26 rows, 10000 columns and 56817 nonzeros
Variable types: 0 continuous, 10000 integer (0 binary)
Coefficient statistics:
  Matrix range     [1e+00, 1e+00]
  Objective range  [2e+01, 2e+02]
  Bounds range     [1e+00, 1e+00]
  RHS range        [1e+00, 2e+01]
Found heuristic solution: objective 898.1478388
Presolve removed 1 rows and 4696 columns
Presolve time: 0.06s
Presolved: 25 rows, 5304 columns, 24804 nonzeros
Found heuristic solution: objective 888.3643969
Variable types: 0 continuous, 5304 integer (5304 binary)

Root relaxation: objective 5.164879e+02, 100 iterations, 0.01 seconds

    Nodes    |    Current Node    |     Objective Bounds      |     Work
 Expl Unexpl |  Obj  Depth IntInf | Incumbent    BestBd   Gap | It/Node Time

*    0     0               0     516.4879265  516.48793  0.00%     -    0s

Explored 0 nodes (100 simplex iterations) in 0.09 seconds
Thread count was 8 (of 8 available processors)

Solution count 2: 516.488 888.364 

Optimal solution found (tolerance 1.00e-04)
Best objective 5.164879265019e+02, best bound 5.164879265019e+02, gap 0.0000%

Routes:
18 8 17 5
21 23 24 12
2 15 22 4 25
3 9 20 1
7 11 19 10
14 16 6 13

Distance: 516.487926502
Execution time:  89.070731  seconds
